n_res = 4;
rc = [ 23, 25, 25, 18 ];
n_tasks = 30;
d = [ 4, 2, 3, 1, 3, 2, 4, 4, 9, 6, 7, 2, 10, 3, 9, 7, 2, 5, 5, 6, 7, 9, 9, 4, 3, 7, 3, 4, 6, 10 ];
rr = [| 23, 23, 23, 23, 23, 23, 23, 23, 23, 23, 23, 23, 23, 23, 23, 23, 23, 23, 23, 23, 23, 23, 23, 23, 23, 23, 23, 23, 23, 23
      | 25, 25, 25, 25, 25, 25, 25, 25, 25, 25, 25, 25, 25, 25, 25, 25, 25, 25, 25, 25, 25, 25, 25, 25, 25, 25, 25, 25, 25, 25
      | 25, 25, 25, 25, 25, 25, 25, 25, 25, 25, 25, 25, 25, 25, 25, 25, 25, 25, 25, 25, 25, 25, 25, 25, 25, 25, 25, 25, 25, 25
      | 18, 18, 18, 18, 18, 18, 18, 18, 18, 18, 18, 18, 18, 18, 18, 18, 18, 18, 18, 18, 18, 18, 18, 18, 18, 18, 18, 18, 18, 18|];
suc = [ { 4, 5, 8 },
       { 19, 20, 22 },
       { 6, 9, 11 },
       { 7, 11, 20 },
       { 6, 10, 17 },
       { 13, 16, 29 },
       { 12, 14, 21 },
       { 9, 14, 19 },
       { 10, 13, 15 },
       { 18, 25, 30 },
       { 16, 21 },
       { 13, 22 },
       { 18, 24, 30 },
       { 15, 16 },
       { 18, 23, 29 },
       { 27 },
       { 20, 21, 22 },
       { 27 },
       { 23, 29 },
       { 24, 25, 26 },
       { 26 },
       { 23 },
       { 24, 25, 26 },
       { 28 },
       { 27 },
       { 28, 30 },
       { 28 },
       {  },
       {  },
       {  } ];
